-1	170	291	184	56	198	256	61	464	31
170	-1	68	481	329	294	455	158	147	98
291	68	-1	439	463	304	107	385	426	922
184	481	439	-1	52	302	447	151	425	93
56	329	463	52	-1	146	130	54	410	55
198	294	304	302	146	-1	335	64	418	89
256	455	107	447	130	335	-1	78	491	59
61	158	385	151	54	64	78	-1	208	55
464	147	426	425	410	418	491	208	-1  89
64	17	46	25	40	18	491	28	557 -1